NAME : portcgen-22-23
COMMENT : portcgen N=22, seed=23
TYPE : TSP
DIMENSION : 22
EDGE_WEIGHT_TYPE : EUC_2D
NODE_COORD_SECTION
1 132875 -31038
2 55140 48556
3 -76540 83310
4 222843 12085
5 352050 49330
6 254918 285033
7 446438 -243003
8 -112571 -31843
9 367415 -97133
10 76167 -155526
11 80386 12262
12 83093 -3338
13 -308019 -257531
14 -147343 -85110
15 -21904 -97221
16 7064 -242480
17 -284173 -133892
18 -175235 -51036
19 -110486 118903
20 -188729 44293
21 207402 161533
22 169563 -144459
